50
24869

374 515
931 492
162 903
656 886
32 791
294 270
560 168
722 68
456 862
628 849
180 462
939 905
987 633
248 770
897 267
788 628
954 484
691 384
324 18
915 802
907 43
586 662
704 599
887 270
227 822
76 353
204 502
740 988
379 923
173 436
806 648
730 119
883 684
429 523
430 937
591 635
508 503
98 877
985 660
246 914
316 820
363 338
760 215
225 905
438 643
758 940
458 977
452 559
653 211
606 59
